NAME          DCAP_3_4_2_500_SS412
ROWS
 N  OBJ
 L  CON1
 L  CON2
 L  CON3
 L  CON4
 L  CON5
 L  CON6
 L  CON7
 L  CON8
 L  CON9
 L  CON10
 L  CON11
 L  CON12
 E  CON13
 E  CON14
 E  CON15
 E  CON16
 E  CON17
 E  CON18
 E  CON19
 E  CON20
COLUMNS
    x[1,1]    OBJ       6.180167      CON1      1.000000    
    x[1,1]    CON7      -1.000000     CON8      -1.000000   
    x[1,2]    OBJ       5.039546      CON2      1.000000    
    x[1,2]    CON8      -1.000000   
    x[2,1]    OBJ       6.732585      CON3      1.000000    
    x[2,1]    CON9      -1.000000     CON10     -1.000000   
    x[2,2]    OBJ       7.443064      CON4      1.000000    
    x[2,2]    CON10     -1.000000   
    x[3,1]    OBJ       6.563535      CON5      1.000000    
    x[3,1]    CON11     -1.000000     CON12     -1.000000   
    x[3,2]    OBJ       6.054841      CON6      1.000000    
    x[3,2]    CON12     -1.000000   
    MARKER    'MARKER'                'INTORG'
    u[1,1]    OBJ       48.076654     CON1      -1.000000   
    u[1,2]    OBJ       49.466655     CON2      -1.000000   
    u[2,1]    OBJ       49.996186     CON3      -1.000000   
    u[2,2]    OBJ       32.230043     CON4      -1.000000   
    u[3,1]    OBJ       20.066487     CON5      -1.000000   
    u[3,2]    OBJ       27.484319     CON6      -1.000000   
    y[1,1,1]  OBJ       5.844297      CON7      0.705540    
    y[1,1,1]  CON13     1.000000    
    y[1,1,2]  OBJ       6.793005      CON8      0.799292    
    y[1,1,2]  CON14     1.000000    
    y[1,2,1]  OBJ       6.804562      CON7      0.969796    
    y[1,2,1]  CON15     1.000000    
    y[1,2,2]  OBJ       7.131286      CON8      1.391823    
    y[1,2,2]  CON16     1.000000    
    y[1,3,1]  OBJ       7.652617      CON7      1.090599    
    y[1,3,1]  CON17     1.000000    
    y[1,3,2]  OBJ       6.154985      CON8      1.281108    
    y[1,3,2]  CON18     1.000000    
    y[1,4,1]  OBJ       5.503526      CON7      1.358697    
    y[1,4,1]  CON19     1.000000    
    y[1,4,2]  OBJ       9.474877      CON8      1.324761    
    y[1,4,2]  CON20     1.000000    
    y[2,1,1]  OBJ       9.072776      CON9      0.705540    
    y[2,1,1]  CON13     1.000000    
    y[2,1,2]  OBJ       7.375259      CON10     0.799292    
    y[2,1,2]  CON14     1.000000    
    y[2,2,1]  OBJ       6.666467      CON9      0.969796    
    y[2,2,1]  CON15     1.000000    
    y[2,2,2]  OBJ       6.049071      CON10     1.391823    
    y[2,2,2]  CON16     1.000000    
    y[2,3,1]  OBJ       9.258909      CON9      1.090599    
    y[2,3,1]  CON17     1.000000    
    y[2,3,2]  OBJ       9.274104      CON10     1.281108    
    y[2,3,2]  CON18     1.000000    
    y[2,4,1]  OBJ       9.510623      CON9      1.358697    
    y[2,4,1]  CON19     1.000000    
    y[2,4,2]  OBJ       5.437540      CON10     1.324761    
    y[2,4,2]  CON20     1.000000    
    y[3,1,1]  OBJ       6.545950      CON11     0.705540    
    y[3,1,1]  CON13     1.000000    
    y[3,1,2]  OBJ       6.446465      CON12     0.799292    
    y[3,1,2]  CON14     1.000000    
    y[3,2,1]  OBJ       9.180800      CON11     0.969796    
    y[3,2,1]  CON15     1.000000    
    y[3,2,2]  OBJ       9.014099      CON12     1.391823    
    y[3,2,2]  CON16     1.000000    
    y[3,3,1]  OBJ       8.827354      CON11     1.090599    
    y[3,3,1]  CON17     1.000000    
    y[3,3,2]  OBJ       5.691640      CON12     1.281108    
    y[3,3,2]  CON18     1.000000    
    y[3,4,1]  OBJ       5.615295      CON11     1.358697    
    y[3,4,1]  CON19     1.000000    
    y[3,4,2]  OBJ       9.375430      CON12     1.324761    
    y[3,4,2]  CON20     1.000000    
    z[1,1]    OBJ       991.270858    CON13     1.000000    
    z[1,2]    OBJ       699.520376    CON14     1.000000    
    z[2,1]    OBJ       626.728212    CON15     1.000000    
    z[2,2]    OBJ       843.381274    CON16     1.000000    
    z[3,1]    OBJ       750.778331    CON17     1.000000    
    z[3,2]    OBJ       989.265825    CON18     1.000000    
    z[4,1]    OBJ       876.562270    CON19     1.000000    
    z[4,2]    OBJ       948.185681    CON20     1.000000    
    MARKER    'MARKER'                 'INTEND'
RHS
    RHS       CON1      -0.000000     CON2      -0.000000   
    RHS       CON3      -0.000000     CON4      -0.000000   
    RHS       CON5      -0.000000     CON6      -0.000000   
    RHS       CON7      -0.000000     CON8      -0.000000   
    RHS       CON9      -0.000000     CON10     -0.000000   
    RHS       CON11     -0.000000     CON12     -0.000000   
    RHS       CON13     1.000000      CON14     1.000000    
    RHS       CON15     1.000000      CON16     1.000000    
    RHS       CON17     1.000000      CON18     1.000000    
    RHS       CON19     1.000000      CON20     1.000000    
BOUNDS
 BV BOUND     u[1,1]  
 BV BOUND     u[1,2]  
 BV BOUND     u[2,1]  
 BV BOUND     u[2,2]  
 BV BOUND     u[3,1]  
 BV BOUND     u[3,2]  
 BV BOUND     y[1,1,1]
 BV BOUND     y[1,1,2]
 BV BOUND     y[1,2,1]
 BV BOUND     y[1,2,2]
 BV BOUND     y[1,3,1]
 BV BOUND     y[1,3,2]
 BV BOUND     y[1,4,1]
 BV BOUND     y[1,4,2]
 BV BOUND     y[2,1,1]
 BV BOUND     y[2,1,2]
 BV BOUND     y[2,2,1]
 BV BOUND     y[2,2,2]
 BV BOUND     y[2,3,1]
 BV BOUND     y[2,3,2]
 BV BOUND     y[2,4,1]
 BV BOUND     y[2,4,2]
 BV BOUND     y[3,1,1]
 BV BOUND     y[3,1,2]
 BV BOUND     y[3,2,1]
 BV BOUND     y[3,2,2]
 BV BOUND     y[3,3,1]
 BV BOUND     y[3,3,2]
 BV BOUND     y[3,4,1]
 BV BOUND     y[3,4,2]
 BV BOUND     z[1,1]  
 BV BOUND     z[1,2]  
 BV BOUND     z[2,1]  
 BV BOUND     z[2,2]  
 BV BOUND     z[3,1]  
 BV BOUND     z[3,2]  
 BV BOUND     z[4,1]  
 BV BOUND     z[4,2]  
ENDATA
